 vasp.6.3.2 27Jun22 (build Mar 15 2023 15:45:48) complex

 executed on             LinuxIFC date 2025.02.11  10:40:15

 INCAR:
   SYSTEM = Fe2O3
   ISTART = 1
   ICHARG = 11
   LWAVE = .TRUE.
   LCHARG = .TRUE.
   LVHAR = .FALSE.
   LELF = .FALSE.
   LORBIT = 11
   ISMEAR = 1            (Gaussian smearing
   SIGMA = 0.1        (Smearing value in eV
   NELM = 100           (Max electronic SCF steps)
   NELMIN = 5           (Min electronic SCF steps)
   EDIFF = 1E-6        (SCF energy convergence
   GGA = PE
   LREAL = Auto
   PREC = Accurate
   ENCUT = 450
   NSW = 0         (Max electronic SCF steps)
   IBRION = 2           (Algorithm: 0-MD
   POTIM = 0.01
   ISIF = 2
   EDIFFG = -5E-2
   ALGO = Normal
   ISPIN = 2
   NCORE = 4
   KPAR = 8
   LDIPOL = .TRUE.
   IDIPOL = 3
   AMIX = 0.05
   BMIX = 0.0001
   IMIX = 4

 POTCAR:    PAW_PBE Fe 06Sep2000
 POTCAR:    PAW_PBE Cr_pv 02Aug2007
 POTCAR:    PAW_PBE Pb_d 06Sep2000
|           W    W    AA    RRRRR   N    N  II  N    N   GGGG   !!!           |
|           W    W   A  A   R    R  NN   N  II  NN   N  G    G  !!!           |
|           W    W  A    A  R    R  N N  N  II  N N  N  G       !!!           |
|           W WW W  AAAAAA  RRRRR   N  N N  II  N  N N  G  GGG   !            |
|           WW  WW  A    A  R   R   N   NN  II  N   NN  G    G                |
|           W    W  A    A  R    R  N    N  II  N    N   GGGG   !!!           |
|     You use a magnetic or noncollinear calculation, but did not specify     |
|     the initial magnetic moment with the MAGMOM tag. Note that a            |
|     default of 1 will be used for all atoms. This ferromagnetic setup       |
|     may break the symmetry of the crystal, in particular it may rule        |
|     out finding an antiferromagnetic solution. Thence, we recommend         |
|     setting the initial magnetic moment manually or verifying carefully     |
|     that this magnetic setup is desired.                                    |

 POTCAR:    PAW_PBE Fe 06Sep2000
   VRHFIN =Fe:  d7 s1

   TITEL  = PAW_PBE Fe 06Sep2000
   POMASS =   55.847; ZVAL   =    8.000    mass and valenz
   ENMAX  =  267.882; ENMIN  =  200.911 eV

 POTCAR:    PAW_PBE Cr_pv 02Aug2007
   VRHFIN =Cr : p6d5s1

   TITEL  = PAW_PBE Cr_pv 02Aug2007
   POMASS =   51.996; ZVAL   =   12.000    mass and valenz
   ENMAX  =  265.681; ENMIN  =  199.261 eV

 POTCAR:    PAW_PBE Pb_d 06Sep2000
   VRHFIN =Pb:

   TITEL  = PAW_PBE Pb_d 06Sep2000
   POMASS =  207.200; ZVAL   =   14.000    mass and valenz
   ENMAX  =  237.835; ENMIN  =  178.376 eV

 Optimization of the real space projectors (new method)

 maximal supplied QI-value         = 16.25
 optimisation between [QCUT,QGAM] = [ 10.73, 21.61] = [ 32.22,130.83] Ry
 Optimized for a Real-space Cutoff    1.42 Angstroem

   l    n(q)    QCUT    max X(q) W(low)/X(q) W(high)/X(q)  e(spline)
   2      8    10.726    80.901    0.24E-03    0.41E-03    0.22E-06
   2      8    10.726    75.754    0.24E-03    0.41E-03    0.23E-06
   0      9    10.726    58.752    0.21E-03    0.17E-03    0.42E-07
   0      9    10.726    30.679    0.19E-03    0.16E-03    0.39E-07
   1      9    10.726    17.977    0.20E-03    0.14E-03    0.16E-06
   1      9    10.726    13.559    0.17E-03    0.11E-03    0.13E-06
 Optimization of the real space projectors (new method)

[...]

   l    n(q)    QCUT    max X(q) W(low)/X(q) W(high)/X(q)  e(spline)
   1      9    10.726     3.262    0.86E-04    0.42E-04    0.11E-06
   1      9    10.726     5.741    0.19E-03    0.70E-04    0.20E-06
   2      9    10.726    60.438    0.11E-03    0.51E-04    0.13E-06
   2      9    10.726    55.380    0.12E-03    0.51E-04    0.13E-06
   0     10    10.726    80.273    0.42E-04    0.15E-05    0.77E-07
   0     10    10.726    36.654    0.34E-04    0.84E-06    0.69E-07
 Optimization of the real space projectors (new method)

 maximal supplied QI-value         = 15.12
 optimisation between [QCUT,QGAM] = [ 10.73, 21.62] = [ 32.26,130.87] Ry
 Optimized for a Real-space Cutoff    1.42 Angstroem

   l    n(q)    QCUT    max X(q) W(low)/X(q) W(high)/X(q)  e(spline)
   2      8    10.734     3.846    0.11E-03    0.12E-04    0.36E-07
   2      8    10.734     8.593    0.24E-03    0.21E-03    0.13E-06
   0      9    10.734    20.082    0.65E-04    0.10E-03    0.71E-07
   0      9    10.734     8.597    0.91E-04    0.14E-03    0.10E-06
   1      9    10.734    33.223    0.24E-03    0.75E-04    0.13E-06
   1      9    10.734    15.899    0.21E-03    0.70E-04    0.12E-06
  PAW_PBE Fe 06Sep2000                  :
  PAW_PBE Cr_pv 02Aug2007               :
  PAW_PBE Pb_d 06Sep2000                :

 POSCAR: Generated by VASPKIT code
  positions in direct lattice
  velocities in cartesian coordinates
 exchange correlation table for  LEXCH =        8
   RHO(1)=    0.500       N(1)  =     2000
   RHO(2)=  100.500       N(2)  =     4000

 VTST: version 4.2, (08/11/21)

 CHAIN: initializing optimizer

 OPT: Using VASP Conjugate-Gradient optimizer
 CHAIN: Read ICHAIN            0

 POSCAR: Generated by VASPKIT code
  positions in direct lattice
  velocities in cartesian coordinates

 ion  position               nearest neighbor table
   1  0.001  1.000  0.243-  13 2.44   5 2.44  48 2.45   2 2.45  38 2.45  44 2.46  35 2.47  11 2.49
                            15 2.78  51 2.83   4 2.84  34 2.84   6 2.85  49 2.86
   2  0.166  0.167  0.303-  15 2.40  22 2.40  18 2.41   1 2.45   6 2.46   8 2.47  49 2.47  57 2.48
                             5 2.82  35 2.84   3 2.85  11 2.85   7 2.87
   3  0.499  0.161  0.302-  49 2.40  18 2.42   4 2.42  55 2.44   8 2.47  57 2.48  50 2.49  59 2.53
                            52 2.77  37 2.82   2 2.85   5 2.87   9 2.92  63 3.42
   4  0.668  0.001  0.243-   3 2.42   5 2.44  38 2.44  37 2.45  48 2.45  13 2.46  46 2.46  52 2.50
                            53 2.78  55 2.81  50 2.82  60 2.84   1 2.84  49 2.84
   5  0.836  0.168  0.302-  15 2.43   1 2.44   6 2.44  22 2.44  50 2.44   4 2.44  55 2.52  59 2.53
                            38 2.80   2 2.82  10 2.83  13 2.85   3 2.87
   6  0.000  0.335  0.242-   5 2.44  10 2.44  35 2.46  38 2.46  39 2.46   2 2.46  42 2.47   7 2.50
                            22 2.76  51 2.82  61 2.83  50 2.84   1 2.85   8 2.85
   7  0.169  0.504  0.304-  22 2.41  27 2.43  12 2.43  51 2.45  57 2.46   8 2.49   6 2.50  11 2.78
                             9 2.81  10 2.86  39 2.87   2 2.87
   8  0.335  0.333  0.243-  39 2.45  37 2.45  35 2.46  40 2.46   2 2.47   3 2.47   9 2.47   7 2.49
                            12 2.83  57 2.83  62 2.83  49 2.84  50 2.84   6 2.85
   9  0.498  0.505  0.303-  32 2.39  12 2.42  57 2.44  53 2.46   8 2.47  50 2.51  59 2.54  52 2.81
                             7 2.81  40 2.82  10 2.86   3 2.92
  10  0.834  0.501  0.301-  27 2.40  32 2.41  22 2.44   6 2.44  50 2.45  51 2.47  53 2.47  59 2.55
                            42 2.80  13 2.82   5 2.83   9 2.86   7 2.86
  11  0.168  0.831  0.304-  18 2.43  15 2.44  27 2.45  51 2.45  12 2.46  49 2.47   1 2.49   7 2.78
                            52 2.79  13 2.84   2 2.85  44 2.87
  12  0.333  0.666  0.243-   9 2.42   7 2.43  40 2.45  39 2.45  44 2.46  11 2.46  52 2.47  46 2.47
                            51 2.81   8 2.83  49 2.83  53 2.83  45 2.84
  13  0.836  0.833  0.302-  27 2.41  53 2.42  32 2.42   1 2.44  51 2.45  55 2.45  15 2.46   4 2.46
                            48 2.80  10 2.82  11 2.84   5 2.85  52 2.91
  14  0.001  0.001  0.002-  20 2.46  33 2.46  28 2.46  16 2.48  26 2.83  21 2.83  34 2.84  17 2.85
                            54 2.85
  15  0.002  0.004  0.361-   2 2.40   5 2.43  11 2.44  13 2.46   1 2.78  18 2.80  22 2.82  55 2.88
                            27 2.88
  16  0.168  0.170  0.063-  62 2.44  36 2.45  56 2.45  17 2.46  34 2.46  61 2.46  21 2.46  14 2.48
                            23 2.80  35 2.82  28 2.85  20 2.86  19 2.87
  17  0.335  0.003  0.003-  19 2.45  16 2.46  30 2.46  28 2.46  56 2.81  36 2.82  54 2.83  14 2.85
                            29 2.86
  18  0.329  0.004  0.362-   2 2.41   3 2.42  11 2.43  52 2.44  63 2.75  49 2.79  15 2.80  57 2.81
                            55 2.86
  19  0.505  0.169  0.061-  58 2.43  41 2.45  17 2.45  60 2.46  62 2.47  54 2.47  56 2.48  36 2.48
                            20 2.80  24 2.81  30 2.83  37 2.87  16 2.87
  20  0.833  0.167  0.062-  58 2.43  14 2.46  60 2.46  41 2.46  21 2.46  61 2.46  34 2.46  54 2.50
                            19 2.80  33 2.81  25 2.85  38 2.85  16 2.86
  21  0.000  0.335  0.002-  23 2.46  25 2.46  20 2.46  16 2.46  58 2.81  26 2.83  14 2.83  56 2.83
                            61 2.84
  22  0.003  0.336  0.360-   2 2.40   7 2.41  10 2.44   5 2.44   6 2.76  27 2.80  15 2.82  57 2.84
                            59 2.89
  23  0.168  0.499  0.063-  61 2.45  21 2.46  56 2.46  45 2.46  43 2.46  62 2.47  29 2.47  26 2.48
                            16 2.80  39 2.82  24 2.85  25 2.85  28 2.85
  24  0.501  0.499  0.062-  58 2.43  41 2.45  62 2.45  29 2.46  45 2.46  31 2.47  56 2.47  47 2.47
                            19 2.81  25 2.84  23 2.85  40 2.86  30 2.86
  25  0.834  0.502  0.062-  58 2.42  61 2.45  31 2.45  43 2.46  47 2.46  26 2.46  21 2.46  41 2.46
                            33 2.83  24 2.84  42 2.84  23 2.85  20 2.85
  26  0.001  0.668  0.002-  25 2.46  28 2.46  23 2.48  33 2.48  21 2.83  14 2.83  29 2.84  43 2.85
                            31 2.85
  27  0.994  0.665  0.361-  10 2.40  13 2.41   7 2.43  11 2.45  32 2.78  22 2.80  51 2.80  15 2.88

  28  0.168  0.835  0.062-  34 2.45  36 2.46  43 2.46  45 2.46  17 2.46  29 2.46  26 2.46  14 2.46
                            44 2.83  16 2.85  30 2.85  23 2.85  33 2.86
  29  0.334  0.667  0.002-  24 2.46  28 2.46  23 2.47  30 2.47  56 2.83  45 2.83  31 2.84  26 2.84
                            17 2.86
  30  0.502  0.836  0.062-  60 2.44  54 2.45  36 2.45  17 2.46  47 2.46  31 2.47  45 2.47  29 2.47
                            33 2.83  19 2.83  46 2.85  28 2.85  24 2.86
  31  0.668  0.667  0.002-  25 2.45  24 2.47  30 2.47  33 2.47  54 2.80  58 2.81  29 2.84  26 2.85
                            47 2.85
  32  0.668  0.666  0.359-   9 2.39  10 2.41  13 2.42  52 2.43  53 2.73  27 2.78  55 2.79  59 2.85

  33  0.833  0.836  0.062-  60 2.44  34 2.46  47 2.46  14 2.46  54 2.46  31 2.47  43 2.47  26 2.48
                            20 2.81  30 2.83  25 2.83  48 2.85  28 2.86
  34  0.001  0.001  0.122-  28 2.45  33 2.46  35 2.46  38 2.46  44 2.46  16 2.46  20 2.46  48 2.47
                            43 2.83  14 2.84  61 2.84   1 2.84  36 2.85  60 2.85
  35  0.167  0.168  0.182-  34 2.46   8 2.46   6 2.46  62 2.46  36 2.46   1 2.47  61 2.47  49 2.49
                            39 2.81  16 2.82  44 2.83   2 2.84  38 2.84  37 2.86
  36  0.335  0.002  0.122-  16 2.45  30 2.45  28 2.46  37 2.46  44 2.46  46 2.46  35 2.46  19 2.48
                            62 2.81  17 2.82  60 2.84  34 2.85  45 2.85  49 2.87
  37  0.502  0.167  0.183-  62 2.44  50 2.44   4 2.45   8 2.45  60 2.46  41 2.46  36 2.46  49 2.47
                            46 2.82   3 2.82  40 2.84  38 2.84  35 2.86  19 2.87
  38  0.834  0.166  0.183-  50 2.44   4 2.44   1 2.45   6 2.46  61 2.46  34 2.46  60 2.46  41 2.47
[...]
  125                    map_gather                            0.010724                2   9
  126        forloc                                0.182664                            1   3
  127        fornlr                                3.250103                            1   3
  128          rspher_all                            0.175805                          3   4
  129          phaser                                0.140679                          9   4
  130          rpro_isp                              2.865220                          9   4
  131            fftwav_mpi                            0.168386                     6678   5
  132              fftwav                                0.159653                   6678   6
  133                fft3d                                 0.092745                 6678   7
  134            rpromu_acc                            2.685268                     1674   5
  135          m_sumb_d                              0.018046                          1   4
  136        fordep                                1.193722                            1   3
  137          setdij_                               1.193499                          6   4
  138        setdij_                               3.999252                           20   3
  139        set_dd_magatom                        0.000005                            1   3
  140        set_dd_paw                            0.090432                            1   3
  141          m_sumb_d                              0.014584                          7   4
  142        strkin                                0.095447                            1   3
  143          m_sumb_d                              0.003125                          1   4
  144        strelo                                0.018427                            1   3
  145        strnlr                                9.752144                            1   3
  146          rspher_all                            0.517623                          9   4
  147          phaser                                0.434653                         27   4
  148          rpro_isp                              8.596382                         27   4
  149            fftwav_mpi                            0.484557                    20034   5
  150              fftwav                                0.458345                  20034   6
  151                fft3d                                 0.275735                20034   7
  152            rpromu_acc                            8.074927                     5022   5
  153          m_sumb_d                              0.050173                          9   4
  154        fft3d_mpi                             0.611565                           22   3
  155          fftbrc_mpi                            0.504517                         22   4
  156            fftbas_plan_mpi                       0.504487                       22   5
  157              dfftw_execute                         0.321214                     66   6
  158              map_forward                           0.082436                     20   6
  159                map_scatter                           0.045207                   10   7
  160              map_backward                          0.098624                     24   6
  161                map_gather                            0.063112                   12   7
  162        forhar                                0.362441                            2   3
  163        strehar                               0.010684                            1   3
  164        chggra                                0.140843                            1   3
  165          fft3d_mpi                             0.133277                          3   4
  166            fftbrc_mpi                            0.130561                        3   5
  167              fftbas_plan_mpi                       0.130557                      3   6
  168                map_forward                           0.000064                    4   7
  169                  map_scatter                           0.000010                  2   8
  170                map_backward                          0.000014                    2   7
  171                  map_gather                            0.000003                  1   8
  172          pothar                                0.000964                          1   4
  173        m_bcast_d                             0.034499                            2   3
  174      potlok                                5.295648                              1   2
  175        fft3d_mpi                             0.741793                           26   3
  176          fftbrc_mpi                            0.619249                         26   4
  177            fftbas_plan_mpi                       0.619214                       26   5
  178              dfftw_execute                         0.384306                     78   6
  179              map_forward                           0.116169                     28   6
  180                map_scatter                           0.053909                   14   7
  181              map_backward                          0.098637                     24   6
  182                map_gather                            0.063212                   12   7
  183        fewald                                0.000094                            2   3
  184          rsp                                   0.000061                          2   4
  185          rcp                                   0.000028                          2   4
  186        pothar                                0.029533                            1   3
  187      potlok_metagga                        0.000000                              1   2
  188      set_dd_magatom                        0.000005                              1   2
  189      set_dd_paw                            0.152652                              1   2
  190        m_sumb_d                              0.076796                            7   3
  191      densta                                0.056273                              1   2
  192        m_sumb_d                              0.010653                           42   3
  193      m_sumb_d                              0.001313                              1   2

 Flat profile

 total_time                             87.091729           1
 eddav                                  72.970043           5
 rpromu_acc                             18.056185       10955
 potlok                                  9.054058           2
 hamiltmu                                6.642625        5111
 sphpro_fast                             6.572166           2
 lapack                                  5.929226        5111
 setdij_                                 5.898968          29
 force_and_stress                        4.449666           1
 racc0mu_acc                             3.947170        5111
 orth1                                   3.777513       15339
 fft3d                                   2.549456      140448
 m_bcast_z                               2.264139        7431
 newband                                 2.121057        5141
 fftbas_plan_mpi                         1.955091          88
 raccmu_                                 1.671469        5111
 dfftw_execute                           1.447983         255
 phaser                                  1.100402          69
 w1_copy                                 1.054741      120414
 fftwav                                  1.003588      100310
 m_sumb_d                                0.848015         305
 choleski                                0.797462           6
 init_hip                                0.759484           1
 rspher_all                              0.759108          14
 lincom                                  0.534722          36
 overl                                   0.483627       69152
 overl_mu                                0.434264        5111
 fft3d_mpi                               0.428097       40226
 elmin                                   0.424016           1
 stufak                                  0.366774           2
 forhar                                  0.362441           2
 ggemm                                   0.280579        6521
 set_dd_paw                              0.278365           3
 orthch                                  0.259437           1
 eccp                                    0.240147       11130
 proall                                  0.237609           1
 map_gather                              0.214926          43
 apply_precond                           0.200233       29008
 augmentation_charge                     0.193255           1
 forloc                                  0.182664           1
 map_scatter                             0.177963          45
 kinhamil                                0.166108       40138
 map_forward                             0.163069          90
 fftext_mpi                              0.159938       40138
 strnlr                                  0.153314           1
 fftwav_mpi                              0.145287      100310
 vhamil                                  0.128725       40138
 map_backward                            0.118987          86
 strkin                                  0.092322           1
 setup_precond                           0.082621       11130
 densta                                  0.081822           6
 pothar                                  0.060152           3
 rpro_isp                                0.051647          39
 fornlr                                  0.050353           1
 m_bcast_d                               0.034789           9
 depsum                                  0.029409           1
 strelo                                  0.018427           1
 set_charge                              0.012503           1
 inisym                                  0.011946           1
 strehar                                 0.010684           1
 soft_charge                             0.008515           1
 truncate_high_frequency_w1              0.007168       51268
 chggra                                  0.006602           1
 pw_charge                               0.004866        2226
 rsp                                     0.004312           5
 w1_projall                              0.003755        3701
 hip_hipfft_makeplan                     0.002529           6
 fewald                                  0.001538           5
 fft_gq                                  0.000766           1
 rcp                                     0.000383           5
 fordep                                  0.000223           1
 hip_init_hipblas                        0.000204           1
 fftbrc_mpi                              0.000113          88
 hip_init_rocsolver                      0.000070           1
 crpa_reader                             0.000069           1
 set_dd_magatom                          0.000019           3
 posmap                                  0.000017           2
 vectorpot                               0.000016           2
 rotate_active_occupied_orbital          0.000007           1
 potlok_metagga                          0.000004           2
 hip_hipfft_makeplans                    0.000003           3
 redis_pw_over_bands                     0.000001           1
  summed up times    249.633744001389

 Accumulative profile

 total_time                            249.633744           1
 elmin                                 112.394418           1
 eddav                                 106.195268           5
 force_and_stress                       25.008707           1
 rpromu_acc                             18.056185       10955
 hamiltmu                               13.642586        5111
 rpro_isp                               13.458066          39
 potlok                                 10.525714           2
 strnlr                                  9.752144           1
 sphpro_fast                             6.590672           2
 w1_projall                              6.288841        3701
 raccmu_                                 6.052903        5111
 lapack                                  5.929226        5111
 setdij_                                 5.898968          29
 fft3d_mpi                               4.977494       40226
 orthch                                  4.514790           1
 fftbrc_mpi                              4.078132          88
 fftbas_plan_mpi                         4.078020          88
 racc0mu_acc                             3.947170        5111
 orth1                                   3.777513       15339
 fornlr                                  3.250103           1
 fftwav_mpi                              3.227066      100310
 fftwav                                  3.081779      100310
 newband                                 2.993109        5141
 fft3d                                   2.549456      140448
 proall                                  2.281463           1
 m_bcast_z                               2.264139        7431
 dfftw_execute                           1.447983         255
 fordep                                  1.193722           1
 phaser                                  1.100402          69
 w1_copy                                 1.054741      120414
 m_sumb_d                                0.848015         305
 kinhamil                                0.818333       40138
 set_charge                              0.816813           1
 choleski                                0.797462           6
 init_hip                                0.759484           1
 rspher_all                              0.759108          14
 fftext_mpi                              0.652225       40138
 set_dd_paw                              0.551964           3
 lincom                                  0.534722          36
 soft_charge                             0.516766           1
 overl                                   0.483627       69152
 overl_mu                                0.434264        5111
 stufak                                  0.366774           2
 forhar                                  0.362441           2
 map_forward                             0.341032          90
 map_backward                            0.333913          86
 ggemm                                   0.280579        6521
 augmentation_charge                     0.248309           1
 eccp                                    0.240147       11130
 map_gather                              0.214926          43
 apply_precond                           0.200233       29008
 forloc                                  0.182664           1
 map_scatter                             0.177963          45
 chggra                                  0.140843           1
 vhamil                                  0.128725       40138
 strkin                                  0.095447           1
 densta                                  0.093462           6
 setup_precond                           0.082621       11130
 pothar                                  0.060152           3
 depsum                                  0.039235           1
 m_bcast_d                               0.034789           9
 strelo                                  0.018427           1
 fft_gq                                  0.012287           1
 inisym                                  0.011963           1
 strehar                                 0.010684           1
 truncate_high_frequency_w1              0.007168       51268
 fewald                                  0.006397           5
 pw_charge                               0.004866        2226
 rsp                                     0.004312           5
 hip_hipfft_makeplans                    0.002532           3
 hip_hipfft_makeplan                     0.002529           6
 rcp                                     0.000383           5
 hip_init_hipblas                        0.000204           1
 hip_init_rocsolver                      0.000070           1
 crpa_reader                             0.000069           1
 set_dd_magatom                          0.000019           3
 posmap                                  0.000017           2
 vectorpot                               0.000016           2
 rotate_active_occupied_orbital          0.000007           1
 potlok_metagga                          0.000004           2
 redis_pw_over_bands                     0.000001           1

Profiling took   0.173838  0.097744  0.003006  0.002762 seconds
Profiling took   0.114906 seconds