 vasp.6.3.2 27Jun22 (build Mar 15 2023 15:45:48) complex

 executed on             LinuxIFC date 2025.02.10  23:37:29

 INCAR:
   SYSTEM = ni3al
   PREC = Accurate
   EDIFF = 1E-5
   ISTART = 0
   ICHARG = 2
   LREAL = Auto
   NSW = 0
   ISIF = 2
   IBRION = -1
   ISMEAR = -5
   SIGMA = 0.1
   ENCUT = 450
   ALGO = Normal
   LMAXMIX = 4
   AMIN = 0.01
   NELM = 150
   LCHARG = .T.
   LWAVE = .T.
   ISPIN = 2
   NCORE = 4
   LELF = .T.
   LDIPOL = .TRUE.
   IDIPOL = 3
   AMIX = 0.05
   BMIX = 0.0001
   IMIX = 4

 POTCAR:    PAW_PBE Fe 06Sep2000
 POTCAR:    PAW_PBE Cr_pv 02Aug2007
 POTCAR:    PAW_PBE Pb_d 06Sep2000
|           W    W    AA    RRRRR   N    N  II  N    N   GGGG   !!!           |
|           W    W   A  A   R    R  NN   N  II  NN   N  G    G  !!!           |
|           W    W  A    A  R    R  N N  N  II  N N  N  G       !!!           |
|           W WW W  AAAAAA  RRRRR   N  N N  II  N  N N  G  GGG   !            |
|           WW  WW  A    A  R   R   N   NN  II  N   NN  G    G                |
|           W    W  A    A  R    R  N    N  II  N    N   GGGG   !!!           |
|     You use a magnetic or noncollinear calculation, but did not specify     |
|     the initial magnetic moment with the MAGMOM tag. Note that a            |
|     default of 1 will be used for all atoms. This ferromagnetic setup       |
|     may break the symmetry of the crystal, in particular it may rule        |
|     out finding an antiferromagnetic solution. Thence, we recommend         |
|     setting the initial magnetic moment manually or verifying carefully     |
|     that this magnetic setup is desired.                                    |

 POTCAR:    PAW_PBE Fe 06Sep2000
   VRHFIN =Fe:  d7 s1

   TITEL  = PAW_PBE Fe 06Sep2000
   POMASS =   55.847; ZVAL   =    8.000    mass and valenz
   ENMAX  =  267.882; ENMIN  =  200.911 eV

 POTCAR:    PAW_PBE Cr_pv 02Aug2007
   VRHFIN =Cr : p6d5s1

   TITEL  = PAW_PBE Cr_pv 02Aug2007
   POMASS =   51.996; ZVAL   =   12.000    mass and valenz
   ENMAX  =  265.681; ENMIN  =  199.261 eV

 POTCAR:    PAW_PBE Pb_d 06Sep2000
   VRHFIN =Pb:

   TITEL  = PAW_PBE Pb_d 06Sep2000
   POMASS =  207.200; ZVAL   =   14.000    mass and valenz
   ENMAX  =  237.835; ENMIN  =  178.376 eV

 Optimization of the real space projectors (new method)

 maximal supplied QI-value         = 16.25
 optimisation between [QCUT,QGAM] = [ 10.73, 21.61] = [ 32.22,130.83] Ry
 Optimized for a Real-space Cutoff    1.42 Angstroem

   l    n(q)    QCUT    max X(q) W(low)/X(q) W(high)/X(q)  e(spline)
   2      8    10.726    80.901    0.24E-03    0.41E-03    0.22E-06
   2      8    10.726    75.754    0.24E-03    0.41E-03    0.23E-06
   0      9    10.726    58.752    0.21E-03    0.17E-03    0.42E-07
   0      9    10.726    30.679    0.19E-03    0.16E-03    0.39E-07
   1      9    10.726    17.977    0.20E-03    0.14E-03    0.16E-06
   1      9    10.726    13.559    0.17E-03    0.11E-03    0.13E-06
 Optimization of the real space projectors (new method)

[...]

   l    n(q)    QCUT    max X(q) W(low)/X(q) W(high)/X(q)  e(spline)
   1      9    10.726     3.262    0.86E-04    0.42E-04    0.11E-06
   1      9    10.726     5.741    0.19E-03    0.70E-04    0.20E-06
   2      9    10.726    60.438    0.11E-03    0.51E-04    0.13E-06
   2      9    10.726    55.380    0.12E-03    0.51E-04    0.13E-06
   0     10    10.726    80.273    0.42E-04    0.15E-05    0.77E-07
   0     10    10.726    36.654    0.34E-04    0.84E-06    0.69E-07
 Optimization of the real space projectors (new method)

 maximal supplied QI-value         = 15.12
 optimisation between [QCUT,QGAM] = [ 10.73, 21.62] = [ 32.26,130.87] Ry
 Optimized for a Real-space Cutoff    1.42 Angstroem

   l    n(q)    QCUT    max X(q) W(low)/X(q) W(high)/X(q)  e(spline)
   2      8    10.734     3.846    0.11E-03    0.12E-04    0.36E-07
   2      8    10.734     8.593    0.24E-03    0.21E-03    0.13E-06
   0      9    10.734    20.082    0.65E-04    0.10E-03    0.71E-07
   0      9    10.734     8.597    0.91E-04    0.14E-03    0.10E-06
   1      9    10.734    33.223    0.24E-03    0.75E-04    0.13E-06
   1      9    10.734    15.899    0.21E-03    0.70E-04    0.12E-06
  PAW_PBE Fe 06Sep2000                  :
  PAW_PBE Cr_pv 02Aug2007               :
  PAW_PBE Pb_d 06Sep2000                :

 POSCAR: Generated by VASPKIT code
  positions in direct lattice
  velocities in cartesian coordinates
 exchange correlation table for  LEXCH =        8
   RHO(1)=    0.500       N(1)  =     2000
   RHO(2)=  100.500       N(2)  =     4000

 VTST: version 4.2, (08/11/21)

 CHAIN: initializing optimizer

 OPT: Using VASP Dynamics algorithm
 CHAIN: Read ICHAIN            0

 POSCAR: Generated by VASPKIT code
  positions in direct lattice
  velocities in cartesian coordinates

 ion  position               nearest neighbor table
   1  0.001  1.000  0.243-  13 2.44  48 2.45   5 2.45   2 2.45  38 2.45  44 2.46  35 2.47  11 2.49
                            15 2.77  51 2.83   4 2.84  34 2.84   6 2.85  49 2.86
   2  0.164  0.168  0.303-  15 2.39  18 2.40  22 2.41  57 2.45   1 2.45   6 2.45   8 2.47  49 2.49
                             5 2.81   7 2.84  11 2.85  35 2.85   3 2.86
   3  0.499  0.162  0.301-  49 2.39   4 2.41  18 2.41  57 2.43   8 2.44  55 2.45  50 2.46  59 2.52
                            52 2.77  37 2.78   2 2.86   5 2.86   9 2.91
   4  0.668  0.001  0.243-   3 2.41  38 2.44   5 2.45  37 2.45  48 2.45  46 2.46  52 2.46  13 2.47
                            53 2.78  50 2.82  60 2.84   1 2.84  49 2.84  55 2.86
   5  0.835  0.167  0.302-  15 2.42  22 2.45   4 2.45  50 2.45   1 2.45   6 2.45  55 2.54  59 2.56
                             2 2.81  38 2.82  10 2.83  13 2.84   3 2.86
   6  0.000  0.335  0.242-  10 2.44   5 2.45   2 2.45  35 2.46  38 2.46  39 2.46  42 2.47   7 2.48
                            22 2.78  51 2.82  61 2.83  50 2.84   1 2.85   8 2.85
   7  0.168  0.502  0.304-  22 2.40  27 2.43  12 2.45  51 2.46   8 2.48   6 2.48  57 2.56  11 2.81
                             9 2.83   2 2.84  10 2.85  39 2.88  63 2.96
   8  0.335  0.333  0.243-   3 2.44  39 2.45  37 2.45  35 2.46  40 2.46   9 2.46   2 2.47   7 2.48
                            12 2.83  62 2.83  49 2.84  50 2.84   6 2.85  57 2.87
   9  0.500  0.505  0.302-  32 2.40  12 2.41  53 2.44   8 2.46  50 2.49  59 2.52  57 2.55  40 2.80
                            52 2.81   7 2.83  10 2.85   3 2.91  63 2.99
  10  0.834  0.501  0.302-  32 2.41  27 2.41  22 2.43   6 2.44  50 2.45  51 2.47  53 2.48  59 2.59
                            42 2.80  13 2.82   5 2.83   9 2.85   7 2.85
  11  0.169  0.833  0.304-  15 2.42  27 2.46  49 2.46  51 2.47  12 2.47  18 2.48   1 2.49  52 2.81
                             7 2.81  13 2.84   2 2.85  44 2.88  63 2.93
  12  0.333  0.666  0.243-   9 2.41  40 2.45  39 2.45   7 2.45  44 2.46  52 2.46  46 2.47  11 2.47
                            51 2.81   8 2.83  49 2.83  53 2.83  45 2.84  63 3.62
  13  0.836  0.833  0.302-  32 2.41  27 2.41  53 2.43  15 2.44   1 2.44  51 2.46   4 2.47  55 2.54
                            48 2.82  10 2.82  11 2.84   5 2.84  52 2.89
  14  0.001  0.001  0.002-  20 2.46  33 2.46  28 2.46  16 2.48  26 2.83  21 2.83  34 2.84  17 2.85
                            54 2.85
  15  0.001  0.003  0.360-   2 2.39   5 2.42  11 2.42  13 2.44   1 2.77  18 2.83  22 2.84  27 2.88
                            55 2.94
  16  0.168  0.170  0.063-  62 2.44  36 2.45  56 2.45  17 2.46  34 2.46  61 2.46  21 2.46  14 2.48
                            23 2.80  35 2.82  28 2.85  20 2.86  19 2.87
  17  0.335  0.003  0.003-  19 2.45  16 2.46  30 2.46  28 2.46  56 2.81  36 2.82  54 2.83  14 2.85
                            29 2.86
  18  0.332  0.012  0.363-   2 2.40   3 2.41  11 2.48  52 2.50  57 2.62  55 2.78  49 2.81  15 2.83
                            63 3.00
  19  0.505  0.169  0.061-  58 2.43  41 2.45  17 2.45  60 2.46  62 2.47  54 2.47  56 2.48  36 2.48
                            20 2.80  24 2.81  30 2.83  37 2.87  16 2.87
  20  0.833  0.167  0.062-  58 2.43  14 2.46  60 2.46  41 2.46  21 2.46  61 2.46  34 2.46  54 2.50
                            19 2.80  33 2.81  25 2.85  38 2.85  16 2.86
  21  0.000  0.335  0.002-  23 2.46  25 2.46  20 2.46  16 2.46  58 2.81  26 2.83  14 2.83  56 2.83
                            61 2.84
  22  0.002  0.336  0.360-   7 2.40   2 2.41  10 2.43   5 2.45   6 2.78  27 2.78  15 2.84  57 2.88
                            59 2.94
  23  0.168  0.499  0.063-  61 2.45  21 2.46  56 2.46  45 2.46  43 2.46  62 2.47  29 2.47  26 2.48
                            16 2.80  39 2.82  24 2.85  25 2.85  28 2.85
  24  0.501  0.499  0.062-  58 2.43  41 2.45  62 2.45  29 2.46  45 2.46  31 2.47  56 2.47  47 2.47
                            19 2.81  25 2.84  23 2.85  40 2.86  30 2.86
  25  0.834  0.502  0.062-  58 2.42  61 2.45  31 2.45  43 2.46  47 2.46  26 2.46  21 2.46  41 2.46
                            33 2.83  24 2.84  42 2.84  23 2.85  20 2.85
  26  0.001  0.668  0.002-  25 2.46  28 2.46  23 2.48  33 2.48  21 2.83  14 2.83  29 2.84  43 2.85
                            31 2.85
  27  0.995  0.664  0.361-  10 2.41  13 2.41   7 2.43  11 2.46  32 2.78  22 2.78  51 2.81  15 2.88
                            63 3.01
  28  0.168  0.835  0.062-  34 2.45  36 2.46  43 2.46  45 2.46  17 2.46  29 2.46  26 2.46  14 2.46
                            44 2.83  16 2.85  30 2.85  23 2.85  33 2.86
  29  0.334  0.667  0.002-  24 2.46  28 2.46  23 2.47  30 2.47  56 2.83  45 2.83  31 2.84  26 2.84
                            17 2.86
  30  0.502  0.836  0.062-  60 2.44  54 2.45  36 2.45  17 2.46  47 2.46  31 2.47  45 2.47  29 2.47
                            33 2.83  19 2.83  46 2.85  28 2.85  24 2.86
  31  0.668  0.667  0.002-  25 2.45  24 2.47  30 2.47  33 2.47  54 2.80  58 2.81  29 2.84  26 2.85
                            47 2.85
  32  0.669  0.666  0.359-   9 2.40  10 2.41  13 2.41  52 2.45  53 2.73  27 2.78  55 2.83  59 2.85
                            63 2.99
  33  0.833  0.836  0.062-  60 2.44  34 2.46  47 2.46  14 2.46  54 2.46  31 2.47  43 2.47  26 2.48
                            20 2.81  30 2.83  25 2.83  48 2.85  28 2.86
  34  0.001  0.001  0.122-  28 2.45  33 2.46  35 2.46  38 2.46  44 2.46  16 2.46  20 2.46  48 2.47
                            43 2.83  14 2.84  61 2.84   1 2.84  36 2.85  60 2.85
  35  0.167  0.168  0.182-  34 2.46   8 2.46   6 2.46  62 2.46  36 2.46   1 2.47  61 2.47  49 2.49
                            39 2.81  16 2.82  44 2.83  38 2.84   2 2.85  37 2.86
  36  0.335  0.002  0.122-  16 2.45  30 2.45  28 2.46  37 2.46  44 2.46  46 2.46  35 2.46  19 2.48
                            62 2.81  17 2.82  60 2.84  34 2.85  45 2.85  49 2.87
  37  0.502  0.167  0.183-  62 2.44  50 2.44   4 2.45   8 2.45  60 2.46  41 2.46  36 2.46  49 2.47
                             3 2.78  46 2.82  40 2.84  38 2.84  35 2.86  19 2.87
  38  0.834  0.166  0.183-  50 2.44   4 2.44   1 2.45   6 2.46  61 2.46  34 2.46  60 2.46  41 2.47
                             5 2.82  48 2.82  37 2.84  35 2.84  20 2.85  42 2.86
  39  0.170  0.499  0.182-  62 2.45  12 2.45   8 2.45  45 2.45   6 2.46  51 2.46  61 2.46  43 2.47
[...]
  235          m_sumb_d                              0.002809                          2   4
  236        strehar                               0.004026                            1   3
  237          m_sumb_d                              0.000152                          1   4
  238        chggra                                0.076313                            1   3
  239          fft3d_mpi                             0.070591                          3   4
  240            fftbrc_mpi                            0.069064                        3   5
  241              fftbas_plan_mpi                       0.069059                      3   6
  242                map_forward                           0.044269                    4   7
  243                  map_gather                            0.000015                  2   8
  244                  m_alltoallv_z                         0.044221                  2   8
  245                  map_scatter                           0.000015                  2   8
  246                map_backward                          0.000032                    2   7
  247                  map_gather                            0.000004                  1   8
  248                  m_alltoallv_z                         0.000018                  1   8
  249                  map_scatter                           0.000003                  1   8
  250          m_sumb_d                              0.000009                          2   4
  251          pothar                                0.000413                          1   4
  252            m_sumb_d                              0.000004                        1   5
  253        brmix                                 0.131447                            1   3
  254          m_sumb_d                              0.000121                          6   4
  255          brpre                                 0.000233                          2   4
  256          setg0                                 0.006246                          1   4
  257          broyd                                 0.119912                          1   4
  258            brget                                 0.010297                      326   5
  259            brsav                                 0.016770                      163   5
  260            m_sumb_d                              0.015935                       47   5
  261        m_bcast_d                             0.000054                            2   3
  262      potlok                                1.446824                              1   2
  263        fft3d_mpi                             0.282526                           26   3
  264          fftbrc_mpi                            0.252734                         26   4
  265            fftbas_plan_mpi                       0.252706                       26   5
  266              dfftw_execute                         0.075949                     78   6
  267              map_forward                           0.087475                     28   6
  268                map_gather                            0.024073                   16   7
  269                m_alltoallv_z                         0.050864                   16   7
  270                map_scatter                           0.012435                   16   7
  271              map_backward                          0.085539                     24   6
  272                map_gather                            0.009333                   12   7
  273                m_alltoallv_z                         0.053632                   12   7
  274                map_scatter                           0.022472                   12   7
  275        m_sumb_d                              0.000779                            8   3
  276        fewald                                0.000086                            2   3
  277          rsp                                   0.000053                          2   4
  278          rcp                                   0.000028                          2   4
  279        pothar                                0.009547                            1   3
  280          m_sumb_d                              0.002048                          1   4
  281        m_bcast_d                             0.003383                            2   3
  282      potlok_metagga                        0.000000                              1   2
  283      set_dd_magatom                        0.000006                              1   2
  284      set_dd_paw                            0.081630                              1   2
  285        m_sumb_d                              0.005496                            7   3
  286      m_bcast_d                             0.000027                              2   2
  287      fftwav_mpi                           20.672980                           5580   2
  288        fftwav                               20.637525                         5580   3
  289          fft3d                                14.646401                       5580   4
  290      densta                                0.072128                              1   2

 Flat profile

 eddav                                1122.240307          55
 lapack                                245.961895      213957
 m_sumb_d                              232.829821      655569
 rpromu_acc                            107.752662      168497
 hamiltmu                               92.879123      213957
 total_time                             82.695189           1
 potlok                                 58.903432          52
 newband                                50.756485      215057
 racc0mu_acc                            48.552029      213957
 m_alltoall_d                           41.896870     3069191
 fft3d                                  32.764960     1267905
 orth1                                  26.967605      641891
 raccmu_                                23.989060      213957
 phaser                                 20.497550        1230
 overl_mu                               18.933799      213957
 w1_copy                                13.753755     1267539
 redis_pw                               12.691257     1167479
 fftwav                                 12.485423      845392
 ggemm                                  11.344938      265657
 m_bcast_z                              10.514288      221397
 redis_proj                              7.287469     1487712
 m_alltoallv_z                           5.976782        1832
 overl                                   5.486058      742746
 dfftw_execute                           4.312618        4809
 densta                                  4.192860          56
 setdij_                                 4.177013          79
 set_dd_paw                              4.011543          53
 lincom                                  3.708221        1120
 map_scatter                             2.767821        1832
 augmentation_charge                     2.583917          51
 m_bcast_d                               2.164966      428022
 fft3d_mpi                               2.134310      424119
 eccp                                    2.099501      102300
 kinhamil                                1.948471      422513
 fftext_mpi                              1.900527      422513
 broyd                                   1.861445          51
 map_gather                              1.727716        1832
 vhamil                                  1.545641      422513
 fftwav_mpi                              1.471651      845392
 apply_precond                           1.365266      320213
 depsum                                  1.254421          51
 force_and_stress                        1.222109           1
 elmin                                   1.127973           1
 fftbas_plan_mpi                         0.954278        1606
 orthch                                  0.805436           1
 choleski                                0.799683          20
 rspher_all                              0.756722          14
 setup_precond                           0.726456      102300
 init_hip                                0.421439           1
 pothar                                  0.391010          53
 setg0                                   0.320670          53
 brmix                                   0.303103          51
 soft_charge                             0.289959          51
 pw_charge                               0.196907       72906
 brget                                   0.196730        6887
 proall                                  0.179445           1
 set_charge                              0.171873          51
 w1_projall                              0.157275      162257
 brsav                                   0.124320        1739
 forhar                                  0.092280           2
 rpro_isp                                0.084663         130
 stufak                                  0.083648           1
 truncate_high_frequency_w1              0.078376      524813
 strnlr                                  0.070493           1
 strkin                                  0.069317           1
 forloc                                  0.046944           1
 fft_gq                                  0.037944          51
 fornlr                                  0.029060           1
 brpre                                   0.012441         102
 inisym                                  0.011848           1
 rsp                                     0.007081         105
 map_backward                            0.006280        1694
 strelo                                  0.006226           1
 map_forward                             0.005739        1518
 chggra                                  0.005300           1
 strehar                                 0.003874           1
 hip_hipfft_makeplan                     0.002901           6
 brgrid                                  0.002413           1
 fftbrc_mpi                              0.002013        1606
 rcp                                     0.001793         105
 fewald                                  0.001740         105
 hip_init_hipblas                        0.000492           1
 set_dd_magatom                          0.000323          53
 vectorpot                               0.000310          52
 fordep                                  0.000207           1
 hip_init_rocsolver                      0.000068           1
 crpa_reader                             0.000067           1
 potlok_metagga                          0.000028          52
 posmap                                  0.000016           2
 hip_hipfft_makeplans                    0.000009           3
 rotate_active_occupied_orbital          0.000007           1
 redis_pw_over_bands                     0.000000           1
  summed up times    2342.19795298576

 Accumulative profile

 total_time                           2342.197953           1
 elmin                                2205.777732           1
 eddav                                2095.677656          55
 lapack                                245.961895      213957
 m_sumb_d                              232.829821      655569
 hamiltmu                              195.727954      213957
 rpromu_acc                            107.752662      168497
 w1_projall                             98.112483      162257
 raccmu_                                91.474888      213957
 potlok                                 74.090935          52
 newband                                62.598218      215057
 racc0mu_acc                            48.552029      213957
 m_alltoall_d                           41.896870     3069191
 fftwav_mpi                             40.997884      845392
 fftwav                                 39.526233      845392
 redis_pw                               33.908175     1167479
 fft3d                                  32.764960     1267905
 redis_proj                             27.967421     1487712
 orth1                                  26.967605      641891
 fft3d_mpi                              23.611707      424119
 set_charge                             22.691021          51
 phaser                                 20.497550        1230
 overl_mu                               18.933799      213957
 soft_charge                            17.425888          51
 force_and_stress                       16.405998           1
 fftbrc_mpi                             15.753247        1606
 fftbas_plan_mpi                        15.751234        1606
 w1_copy                                13.753755     1267539
 ggemm                                  11.344938      265657
 rpro_isp                               10.757330         130
 m_bcast_z                              10.514288      221397
 kinhamil                                9.828301      422513
 strnlr                                  9.441090           1
 fftext_mpi                              7.879831      422513
 orthch                                  6.089210           1
 map_backward                            6.030803        1694
 m_alltoallv_z                           5.976782        1832
 overl                                   5.486058      742746
 map_forward                             4.453535        1518
 set_dd_paw                              4.338868          53
 dfftw_execute                           4.312618        4809
 setdij_                                 4.202663          79
 densta                                  4.192860          56
 augmentation_charge                     3.802696          51
 lincom                                  3.708221        1120
 brmix                                   3.208531          51
 fornlr                                  3.150264           1
 map_scatter                             2.767821        1832
 broyd                                   2.528602          51
 m_bcast_d                               2.164966      428022
 eccp                                    2.099501      102300
 map_gather                              1.727716        1832
 proall                                  1.573688           1
 vhamil                                  1.545641      422513
 apply_precond                           1.365266      320213
 depsum                                  1.290565          51
 choleski                                0.799683          20
 rspher_all                              0.756722          14
 fft_gq                                  0.732856          51
 setup_precond                           0.726456      102300
 pothar                                  0.448101          53
 init_hip                                0.421439           1
 setg0                                   0.320670          53
 fordep                                  0.316382           1
 pw_charge                               0.196907       72906
 brget                                   0.196730        6887
 brsav                                   0.124320        1739
 forhar                                  0.095089           2
 stufak                                  0.083648           1
 truncate_high_frequency_w1              0.078376      524813
 chggra                                  0.076313           1
 strkin                                  0.069351           1
 forloc                                  0.048176           1
 brpre                                   0.012441         102
 inisym                                  0.011864           1
 fewald                                  0.010716         105
 rsp                                     0.007081         105
 strelo                                  0.006238           1
 strehar                                 0.004026           1
 hip_hipfft_makeplans                    0.002910           3
 hip_hipfft_makeplan                     0.002901           6
 brgrid                                  0.002413           1
 rcp                                     0.001793         105
 hip_init_hipblas                        0.000492           1
 set_dd_magatom                          0.000323          53
 vectorpot                               0.000310          52
 hip_init_rocsolver                      0.000068           1
 crpa_reader                             0.000067           1
 potlok_metagga                          0.000028          52
 posmap                                  0.000016           2
 rotate_active_occupied_orbital          0.000007           1
 redis_pw_over_bands                     0.000000           1

Profiling took   4.687680  1.858672  0.002891  0.002760 seconds
Profiling took   2.670172 seconds